NAME : rnd43_20.tsp
TYPE : TSP
DIMENSION : 20
EDGE_WEIGHT_TYPE : EUC_2D
NODE_COORD_SECTION
1 106 325
2 846 927
3 307 564
4 933 981
5 721 130
6 666 120
7 242 284
8 122 39
9 843 80
10 646 846
11 203 816
12 541 405
13 75 406
14 593 939
15 146 534
16 342 949
17 805 205
18 349 91
19 430 139
20 814 733
